TCS_Benchmarks/redos_fix/snort1_output_distinct_2951_2950_0_0.smt2
(set-logic QF_S)
(declare-const x String)
(assert (str.in.re x (re.inter  (re.++ (re.* (re.comp  (str.to.re "\u{3e}")) ) (re.* (re.comp  (str.to.re "\u{3e}")) ))  (re.++ (re.* (re.comp  (str.to.re "\u{3e}")) ) (re.++  (re.++  (re.union  (str.to.re "\u{6f}")  (str.to.re "\u{4f}")) (re.++  (re.union  (str.to.re "\u{6e}")  (str.to.re "\u{4e}")) (re.++  (re.union  (str.to.re "\u{6c}")  (str.to.re "\u{4c}")) (re.++  (re.union  (str.to.re "\u{6f}")  (str.to.re "\u{4f}")) (re.++  (re.union  (str.to.re "\u{61}")  (str.to.re "\u{41}"))  (re.union  (str.to.re "\u{64}")  (str.to.re "\u{44}"))))))) (re.* (re.comp  (str.to.re "\u{3e}")) ))) )))
(check-sat)
(get-model)