TCS_Benchmarks/redos_fix/snort1_output_distinct_2951_2950_0_0.txt
([^>]*)([^>]*)
([^>]*)([oO][nN][lL][oO][aA][dD])([^>]*)